30 61
29
11 5 19 32
4 11 6 12
10 19 10 0
10 7 14 47
16 9 6 23
9 9 10 32
8 5 22 24
25 7 0 54
7 13 0 36
7 12 7 41
7 7 1 0
7 5 0 49
6 24 24 0
6 18 0 18
6 11 0 7
6 10 19 37
5 6 14 41
5 21 25 37
4 23 20 0
10 4 10 19
4 2 6 32
2 4 6 8
4 1 6 34
3 6 7 35
5 3 25 58
2 12 8 0
7 2 22 29
2 1 6 7
1 4 0 0

301
True
NOT_OPTIMAL